
param nbServers := 4;
param nbResources := 2;

param availableResources :=
            1 1 16
            1 2 16384
            2 1 8
            2 2 8192
            3 1 8
            3 2 8192
            4 1 4
            4 2 4096
;
param nbServiceProviders := 2;
param nbOptions := 1 2
                   2 3;
param bandwidthSaving :=
            1 1 100
            1 2 50
            2 1 20
            2 2 50
            2 3 100
;
param nbContainers :=
            1 1 2
            1 2 1
            2 1 1
            2 2 1
            2 3 2
;

param requiredResources :=
            1 1 1 1 2
            1 1 1 2 2048
            1 1 2 1 3
            1 1 2 2 2048
            1 2 1 1 2
            1 2 1 2 1024
            2 1 1 1 2
            2 1 1 2 4096
            2 2 1 1 2
            2 2 1 2 2048
            2 3 1 1 4
            2 3 1 2 2048
            2 3 2 1 2
            2 3 2 2 2192
;


